p cnf 965 2478
51 -2 -698 0
-51 2 0
-51 698 0
52 -51 -3 0
-52 51 0
-52 3 0
53 -5 -699 0
-53 5 0
-53 699 0
54 -53 -6 0
-54 53 0
-54 6 0
55 -700 -701 0
-55 700 0
-55 701 0
56 -7 -702 0
-56 7 0
-56 702 0
57 -56 -8 0
-57 56 0
-57 8 0
58 -703 -55 0
-58 703 0
-58 55 0
59 -704 -702 0
-59 704 0
-59 702 0
60 -59 -705 0
-60 59 0
-60 705 0
61 -706 -58 0
-61 706 0
-61 58 0
62 -707 -11 0
-62 707 0
-62 11 0
63 -62 -13 0
-63 62 0
-63 13 0
64 -708 -61 0
-64 708 0
-64 61 0
65 -709 -14 0
-65 709 0
-65 14 0
66 -65 -16 0
-66 65 0
-66 16 0
67 -710 -64 0
-67 710 0
-67 64 0
68 -711 -712 0
-68 711 0
-68 712 0
69 -68 -19 0
-69 68 0
-69 19 0
70 -713 -67 0
-70 713 0
-70 67 0
71 -714 -715 0
-71 714 0
-71 715 0
72 -71 -22 0
-72 71 0
-72 22 0
73 -716 -70 0
-73 716 0
-73 70 0
74 -24 -717 0
-74 24 0
-74 717 0
75 -74 -25 0
-75 74 0
-75 25 0
76 -718 -73 0
-76 718 0
-76 73 0
77 -26 -719 0
-77 26 0
-77 719 0
78 -77 -27 0
-78 77 0
-78 27 0
79 -720 -76 0
-79 720 0
-79 76 0
80 -20 -721 0
-80 20 0
-80 721 0
81 -80 -709 0
-81 80 0
-81 709 0
82 -722 -79 0
-82 722 0
-82 79 0
83 -28 -24 0
-83 28 0
-83 24 0
84 -83 -723 0
-84 83 0
-84 723 0
85 -724 -82 0
-85 724 0
-85 82 0
86 -10 -2 0
-86 10 0
-86 2 0
87 -86 -725 0
-87 86 0
-87 725 0
88 -726 -85 0
-88 726 0
-88 85 0
89 -715 -5 0
-89 715 0
-89 5 0
90 -89 -727 0
-90 89 0
-90 727 0
91 -728 -88 0
-91 728 0
-91 88 0
92 -32 -31 0
-92 32 0
-92 31 0
93 -92 -21 0
-93 92 0
-93 21 0
94 -729 -91 0
-94 729 0
-94 91 0
95 -32 -698 0
-95 32 0
-95 698 0
96 -95 -730 0
-96 95 0
-96 730 0
97 -731 -94 0
-97 731 0
-97 94 0
98 -732 -34 0
-98 732 0
-98 34 0
99 -98 -14 0
-99 98 0
-99 14 0
100 -733 -97 0
-100 733 0
-100 97 0
101 -14 -699 0
-101 14 0
-101 699 0
102 -101 -730 0
-102 101 0
-102 730 0
103 -734 -100 0
-103 734 0
-103 100 0
104 -735 -26 0
-104 735 0
-104 26 0
105 -104 -717 0
-105 104 0
-105 717 0
106 -736 -103 0
-106 736 0
-106 103 0
107 -737 -16 0
-107 737 0
-107 16 0
108 -107 -22 0
-108 107 0
-108 22 0
109 -738 -106 0
-109 738 0
-109 106 0
110 -737 -699 0
-110 737 0
-110 699 0
111 -110 -719 0
-111 110 0
-111 719 0
112 -739 -109 0
-112 739 0
-112 109 0
113 -740 -30 0
-113 740 0
-113 30 0
114 -113 -21 0
-114 113 0
-114 21 0
115 -741 -112 0
-115 741 0
-115 112 0
116 -28 -1 0
-116 28 0
-116 1 0
117 -116 -31 0
-117 116 0
-117 31 0
118 -742 -115 0
-118 742 0
-118 115 0
119 -717 -13 0
-119 717 0
-119 13 0
120 -119 -37 0
-120 119 0
-120 37 0
121 -743 -118 0
-121 743 0
-121 118 0
122 -737 -26 0
-122 737 0
-122 26 0
123 -122 -744 0
-123 122 0
-123 744 0
124 -745 -121 0
-124 745 0
-124 121 0
125 -746 -20 0
-125 746 0
-125 20 0
126 -125 -747 0
-126 125 0
-126 747 0
127 -748 -124 0
-127 748 0
-127 124 0
128 -749 -750 0
-128 749 0
-128 750 0
129 -128 -13 0
-129 128 0
-129 13 0
130 -751 -127 0
-130 751 0
-130 127 0
131 -40 -2 0
-131 40 0
-131 2 0
132 -131 -8 0
-132 131 0
-132 8 0
133 -752 -130 0
-133 752 0
-133 130 0
134 -709 -13 0
-134 709 0
-134 13 0
135 -134 -746 0
-135 134 0
-135 746 0
136 -753 -133 0
-136 753 0
-136 133 0
137 -31 -704 0
-137 31 0
-137 704 0
138 -137 -33 0
-138 137 0
-138 33 0
139 -754 -136 0
-139 754 0
-139 136 0
140 -41 -40 0
-140 41 0
-140 40 0
141 -140 -755 0
-141 140 0
-141 755 0
142 -756 -139 0
-142 756 0
-142 139 0
143 -23 -2 0
-143 23 0
-143 2 0
144 -143 -12 0
-144 143 0
-144 12 0
145 -757 -142 0
-145 757 0
-145 142 0
146 -39 -758 0
-146 39 0
-146 758 0
147 -146 -43 0
-147 146 0
-147 43 0
148 -759 -145 0
-148 759 0
-148 145 0
149 -755 -737 0
-149 755 0
-149 737 0
150 -149 -21 0
-150 149 0
-150 21 0
151 -760 -148 0
-151 760 0
-151 148 0
152 -44 -32 0
-152 44 0
-152 32 0
153 -152 -761 0
-153 152 0
-153 761 0
154 -762 -151 0
-154 762 0
-154 151 0
155 -763 -30 0
-155 763 0
-155 30 0
156 -155 -6 0
-156 155 0
-156 6 0
157 -764 -154 0
-157 764 0
-157 154 0
158 -45 -725 0
-158 45 0
-158 725 0
159 -158 -765 0
-159 158 0
-159 765 0
160 -766 -157 0
-160 766 0
-160 157 0
161 -40 -744 0
-161 40 0
-161 744 0
162 -161 -767 0
-162 161 0
-162 767 0
163 -768 -160 0
-163 768 0
-163 160 0
164 -755 -30 0
-164 755 0
-164 30 0
165 -164 -730 0
-165 164 0
-165 730 0
166 -769 -163 0
-166 769 0
-166 163 0
167 -770 -763 0
-167 770 0
-167 763 0
168 -167 -712 0
-168 167 0
-168 712 0
169 -771 -166 0
-169 771 0
-169 166 0
170 -755 -39 0
-170 755 0
-170 39 0
171 -170 -767 0
-171 170 0
-171 767 0
172 -772 -169 0
-172 772 0
-172 169 0
173 -31 -7 0
-173 31 0
-173 7 0
174 -173 -11 0
-174 173 0
-174 11 0
175 -773 -172 0
-175 773 0
-175 172 0
176 -29 -9 0
-176 29 0
-176 9 0
177 -176 -707 0
-177 176 0
-177 707 0
178 -774 -175 0
-178 774 0
-178 175 0
179 -775 -758 0
-179 775 0
-179 758 0
180 -179 -21 0
-180 179 0
-180 21 0
181 -776 -178 0
-181 776 0
-181 178 0
182 -27 -717 0
-182 27 0
-182 717 0
183 -182 -727 0
-183 182 0
-183 727 0
184 -777 -181 0
-184 777 0
-184 181 0
185 -778 -12 0
-185 778 0
-185 12 0
186 -185 -779 0
-186 185 0
-186 779 0
187 -780 -184 0
-187 780 0
-187 184 0
188 -778 -737 0
-188 778 0
-188 737 0
189 -188 -781 0
-189 188 0
-189 781 0
190 -782 -187 0
-190 782 0
-190 187 0
191 -783 -781 0
-191 783 0
-191 781 0
192 -191 -784 0
-192 191 0
-192 784 0
193 -785 -190 0
-193 785 0
-193 190 0
194 -25 -10 0
-194 25 0
-194 10 0
195 -194 -37 0
-195 194 0
-195 37 0
196 -786 -193 0
-196 786 0
-196 193 0
197 -732 -31 0
-197 732 0
-197 31 0
198 -197 -20 0
-198 197 0
-198 20 0
199 -787 -196 0
-199 787 0
-199 196 0
200 -39 -719 0
-200 39 0
-200 719 0
201 -200 -18 0
-201 200 0
-201 18 0
202 -788 -199 0
-202 788 0
-202 199 0
203 -770 -35 0
-203 770 0
-203 35 0
204 -203 -47 0
-204 203 0
-204 47 0
205 -789 -202 0
-205 789 0
-205 202 0
206 -22 -711 0
-206 22 0
-206 711 0
207 -206 -767 0
-207 206 0
-207 767 0
208 -790 -205 0
-208 790 0
-208 205 0
209 -791 -721 0
-209 791 0
-209 721 0
210 -209 -746 0
-210 209 0
-210 746 0
211 -792 -208 0
-211 792 0
-211 208 0
212 -719 -4 0
-212 719 0
-212 4 0
213 -212 -19 0
-213 212 0
-213 19 0
214 -793 -211 0
-214 793 0
-214 211 0
215 -715 -14 0
-215 715 0
-215 14 0
216 -215 -714 0
-216 215 0
-216 714 0
217 -794 -214 0
-217 794 0
-217 214 0
218 -775 -7 0
-218 775 0
-218 7 0
219 -218 -35 0
-219 218 0
-219 35 0
220 -795 -217 0
-220 795 0
-220 217 0
221 -761 -721 0
-221 761 0
-221 721 0
222 -221 -6 0
-222 221 0
-222 6 0
223 -796 -220 0
-223 796 0
-223 220 0
224 -36 -1 0
-224 36 0
-224 1 0
225 -224 -730 0
-225 224 0
-225 730 0
226 -797 -223 0
-226 797 0
-226 223 0
227 -798 -770 0
-227 798 0
-227 770 0
228 -227 -758 0
-228 227 0
-228 758 0
229 -799 -226 0
-229 799 0
-229 226 0
230 -46 -712 0
-230 46 0
-230 712 0
231 -230 -800 0
-231 230 0
-231 800 0
232 -801 -229 0
-232 801 0
-232 229 0
233 -14 -721 0
-233 14 0
-233 721 0
234 -233 -802 0
-234 233 0
-234 802 0
235 -803 -232 0
-235 803 0
-235 232 0
236 -798 -740 0
-236 798 0
-236 740 0
237 -236 -746 0
-237 236 0
-237 746 0
238 -804 -235 0
-238 804 0
-238 235 0
239 -719 -714 0
-239 719 0
-239 714 0
240 -239 -12 0
-240 239 0
-240 12 0
241 -805 -238 0
-241 805 0
-241 238 0
242 -47 -750 0
-242 47 0
-242 750 0
243 -242 -27 0
-243 242 0
-243 27 0
244 -806 -241 0
-244 806 0
-244 241 0
245 -44 -31 0
-245 44 0
-245 31 0
246 -245 -807 0
-246 245 0
-246 807 0
247 -808 -244 0
-247 808 0
-247 244 0
248 -45 -800 0
-248 45 0
-248 800 0
249 -248 -13 0
-249 248 0
-249 13 0
250 -809 -247 0
-250 809 0
-250 247 0
251 -775 -735 0
-251 775 0
-251 735 0
252 -251 -38 0
-252 251 0
-252 38 0
253 -810 -250 0
-253 810 0
-253 250 0
254 -50 -735 0
-254 50 0
-254 735 0
255 -254 -4 0
-255 254 0
-255 4 0
256 -811 -253 0
-256 811 0
-256 253 0
257 -26 -717 0
-257 26 0
-257 717 0
258 -257 -5 0
-258 257 0
-258 5 0
259 -812 -256 0
-259 812 0
-259 256 0
260 -44 -807 0
-260 44 0
-260 807 0
261 -260 -702 0
-261 260 0
-261 702 0
262 -813 -259 0
-262 813 0
-262 259 0
263 -791 -698 0
-263 791 0
-263 698 0
264 -263 -758 0
-264 263 0
-264 758 0
265 -814 -262 0
-265 814 0
-265 262 0
266 -32 -699 0
-266 32 0
-266 699 0
267 -266 -711 0
-267 266 0
-267 711 0
268 -815 -265 0
-268 815 0
-268 265 0
269 -714 -705 0
-269 714 0
-269 705 0
270 -269 -25 0
-270 269 0
-270 25 0
271 -816 -268 0
-271 816 0
-271 268 0
272 -725 -10 0
-272 725 0
-272 10 0
273 -272 -746 0
-273 272 0
-273 746 0
274 -817 -271 0
-274 817 0
-274 271 0
275 -818 -775 0
-275 818 0
-275 775 0
276 -275 -11 0
-276 275 0
-276 11 0
277 -819 -274 0
-277 819 0
-277 274 0
278 -765 -702 0
-278 765 0
-278 702 0
279 -278 -22 0
-279 278 0
-279 22 0
280 -820 -277 0
-280 820 0
-280 277 0
281 -821 -715 0
-281 821 0
-281 715 0
282 -281 -21 0
-282 281 0
-282 21 0
283 -822 -280 0
-283 822 0
-283 280 0
284 -28 -11 0
-284 28 0
-284 11 0
285 -284 -761 0
-285 284 0
-285 761 0
286 -823 -283 0
-286 823 0
-286 283 0
287 -714 -721 0
-287 714 0
-287 721 0
288 -287 -727 0
-288 287 0
-288 727 0
289 -824 -286 0
-289 824 0
-289 286 0
290 -25 -7 0
-290 25 0
-290 7 0
291 -290 -746 0
-291 290 0
-291 746 0
292 -825 -289 0
-292 825 0
-292 289 0
293 -47 -35 0
-293 47 0
-293 35 0
294 -293 -21 0
-294 293 0
-294 21 0
295 -826 -292 0
-295 826 0
-295 292 0
296 -770 -827 0
-296 770 0
-296 827 0
297 -296 -7 0
-297 296 0
-297 7 0
298 -828 -295 0
-298 828 0
-298 295 0
299 -41 -719 0
-299 41 0
-299 719 0
300 -299 -779 0
-300 299 0
-300 779 0
301 -829 -298 0
-301 829 0
-301 298 0
302 -699 -698 0
-302 699 0
-302 698 0
303 -302 -750 0
-303 302 0
-303 750 0
304 -830 -301 0
-304 830 0
-304 301 0
305 -730 -702 0
-305 730 0
-305 702 0
306 -305 -16 0
-306 305 0
-306 16 0
307 -831 -304 0
-307 831 0
-307 304 0
308 -23 -715 0
-308 23 0
-308 715 0
309 -308 -37 0
-309 308 0
-309 37 0
310 -832 -307 0
-310 832 0
-310 307 0
311 -735 -4 0
-311 735 0
-311 4 0
312 -311 -39 0
-312 311 0
-312 39 0
313 -833 -310 0
-313 833 0
-313 310 0
314 -714 -699 0
-314 714 0
-314 699 0
315 -314 -13 0
-315 314 0
-315 13 0
316 -834 -313 0
-316 834 0
-316 313 0
317 -31 -4 0
-317 31 0
-317 4 0
318 -317 -767 0
-318 317 0
-318 767 0
319 -835 -316 0
-319 835 0
-319 316 0
320 -31 -721 0
-320 31 0
-320 721 0
321 -320 -779 0
-321 320 0
-321 779 0
322 -836 -319 0
-322 836 0
-322 319 0
323 -783 -735 0
-323 783 0
-323 735 0
324 -323 -31 0
-324 323 0
-324 31 0
325 -837 -322 0
-325 837 0
-325 322 0
326 -35 -735 0
-326 35 0
-326 735 0
327 -326 -29 0
-327 326 0
-327 29 0
328 -838 -325 0
-328 838 0
-328 325 0
329 -723 -779 0
-329 723 0
-329 779 0
330 -329 -839 0
-330 329 0
-330 839 0
331 -840 -328 0
-331 840 0
-331 328 0
332 -48 -7 0
-332 48 0
-332 7 0
333 -332 -47 0
-333 332 0
-333 47 0
334 -841 -331 0
-334 841 0
-334 331 0
335 -827 -1 0
-335 827 0
-335 1 0
336 -335 -765 0
-336 335 0
-336 765 0
337 -842 -334 0
-337 842 0
-337 334 0
338 -49 -732 0
-338 49 0
-338 732 0
339 -338 -767 0
-339 338 0
-339 767 0
340 -843 -337 0
-340 843 0
-340 337 0
341 -798 -783 0
-341 798 0
-341 783 0
342 -341 -800 0
-342 341 0
-342 800 0
343 -844 -340 0
-343 844 0
-343 340 0
344 -732 -719 0
-344 732 0
-344 719 0
345 -344 -747 0
-345 344 0
-345 747 0
346 -845 -343 0
-346 845 0
-346 343 0
347 -723 -16 0
-347 723 0
-347 16 0
348 -347 -765 0
-348 347 0
-348 765 0
349 -846 -346 0
-349 846 0
-349 346 0
350 -50 -10 0
-350 50 0
-350 10 0
351 -350 -755 0
-351 350 0
-351 755 0
352 -847 -349 0
-352 847 0
-352 349 0
353 -750 -735 0
-353 750 0
-353 735 0
354 -353 -13 0
-354 353 0
-354 13 0
355 -848 -352 0
-355 848 0
-355 352 0
356 -723 -699 0
-356 723 0
-356 699 0
357 -356 -747 0
-357 356 0
-357 747 0
358 -849 -355 0
-358 849 0
-358 355 0
359 -707 -705 0
-359 707 0
-359 705 0
360 -359 -13 0
-360 359 0
-360 13 0
361 -850 -358 0
-361 850 0
-361 358 0
362 -791 -42 0
-362 791 0
-362 42 0
363 -362 -747 0
-363 362 0
-363 747 0
364 -851 -361 0
-364 851 0
-364 361 0
365 -732 -735 0
-365 732 0
-365 735 0
366 -365 -719 0
-366 365 0
-366 719 0
367 -852 -364 0
-367 852 0
-367 364 0
368 -818 -24 0
-368 818 0
-368 24 0
369 -368 -765 0
-369 368 0
-369 765 0
370 -853 -367 0
-370 853 0
-370 367 0
371 -11 -698 0
-371 11 0
-371 698 0
372 -371 -42 0
-372 371 0
-372 42 0
373 -854 -370 0
-373 854 0
-373 370 0
374 -40 -702 0
-374 40 0
-374 702 0
375 -374 -767 0
-375 374 0
-375 767 0
376 -855 -373 0
-376 855 0
-376 373 0
377 -32 -4 0
-377 32 0
-377 4 0
378 -377 -18 0
-378 377 0
-378 18 0
379 -856 -376 0
-379 856 0
-379 376 0
380 -711 -7 0
-380 711 0
-380 7 0
381 -380 -839 0
-381 380 0
-381 839 0
382 -857 -379 0
-382 857 0
-382 379 0
383 -44 -702 0
-383 44 0
-383 702 0
384 -383 -767 0
-384 383 0
-384 767 0
385 -858 -382 0
-385 858 0
-385 382 0
386 -14 -705 0
-386 14 0
-386 705 0
387 -386 -821 0
-387 386 0
-387 821 0
388 -859 -385 0
-388 859 0
-388 385 0
389 -807 -38 0
-389 807 0
-389 38 0
390 -389 -779 0
-390 389 0
-390 779 0
391 -860 -388 0
-391 860 0
-391 388 0
392 -755 -24 0
-392 755 0
-392 24 0
393 -392 -727 0
-393 392 0
-393 727 0
394 -861 -391 0
-394 861 0
-394 391 0
395 -732 -5 0
-395 732 0
-395 5 0
396 -395 -709 0
-396 395 0
-396 709 0
397 -862 -394 0
-397 862 0
-397 394 0
398 -209 -781 0
-398 209 0
-398 781 0
399 -863 -397 0
-399 863 0
-399 397 0
400 -746 -758 0
-400 746 0
-400 758 0
401 -400 -22 0
-401 400 0
-401 22 0
402 -864 -399 0
-402 864 0
-402 399 0
403 -807 -721 0
-403 807 0
-403 721 0
404 -403 -705 0
-404 403 0
-404 705 0
405 -865 -402 0
-405 865 0
-405 402 0
406 -711 -781 0
-406 711 0
-406 781 0
407 -406 -13 0
-407 406 0
-407 13 0
408 -866 -405 0
-408 866 0
-408 405 0
409 -765 -707 0
-409 765 0
-409 707 0
410 -409 -25 0
-410 409 0
-410 25 0
411 -867 -408 0
-411 867 0
-411 408 0
412 -709 -699 0
-412 709 0
-412 699 0
413 -412 -19 0
-413 412 0
-413 19 0
414 -868 -411 0
-414 868 0
-414 411 0
415 -209 -25 0
-415 209 0
-415 25 0
416 -869 -414 0
-416 869 0
-416 414 0
417 -704 -7 0
-417 704 0
-417 7 0
418 -417 -35 0
-418 417 0
-418 35 0
419 -870 -416 0
-419 870 0
-419 416 0
420 -818 -755 0
-420 818 0
-420 755 0
421 -420 -712 0
-421 420 0
-421 712 0
422 -871 -419 0
-422 871 0
-422 419 0
423 -45 -721 0
-423 45 0
-423 721 0
424 -423 -719 0
-424 423 0
-424 719 0
425 -872 -422 0
-425 872 0
-425 422 0
426 -46 -807 0
-426 46 0
-426 807 0
427 -426 -705 0
-427 426 0
-427 705 0
428 -873 -425 0
-428 873 0
-428 425 0
429 -35 -721 0
-429 35 0
-429 721 0
430 -429 -719 0
-430 429 0
-430 719 0
431 -874 -428 0
-431 874 0
-431 428 0
432 -749 -7 0
-432 749 0
-432 7 0
433 -432 -17 0
-433 432 0
-433 17 0
434 -875 -431 0
-434 875 0
-434 431 0
435 -35 -10 0
-435 35 0
-435 10 0
436 -435 -30 0
-436 435 0
-436 30 0
437 -876 -434 0
-437 876 0
-437 434 0
438 -775 -40 0
-438 775 0
-438 40 0
439 -438 -2 0
-439 438 0
-439 2 0
440 -877 -437 0
-440 877 0
-440 437 0
441 -41 -698 0
-441 41 0
-441 698 0
442 -441 -747 0
-442 441 0
-442 747 0
443 -878 -440 0
-443 878 0
-443 440 0
444 -5 -2 0
-444 5 0
-444 2 0
445 -444 -14 0
-445 444 0
-445 14 0
446 -879 -443 0
-446 879 0
-446 443 0
447 -775 -1 0
-447 775 0
-447 1 0
448 -447 -20 0
-448 447 0
-448 20 0
449 -880 -446 0
-449 880 0
-449 446 0
450 -34 -839 0
-450 34 0
-450 839 0
451 -450 -49 0
-451 450 0
-451 49 0
452 -881 -449 0
-452 881 0
-452 449 0
453 -50 -827 0
-453 50 0
-453 827 0
454 -453 -4 0
-454 453 0
-454 4 0
455 -882 -452 0
-455 882 0
-455 452 0
456 -725 -16 0
-456 725 0
-456 16 0
457 -456 -37 0
-457 456 0
-457 37 0
458 -883 -455 0
-458 883 0
-458 455 0
459 -798 -702 0
-459 798 0
-459 702 0
460 -459 -712 0
-460 459 0
-460 712 0
461 -884 -458 0
-461 884 0
-461 458 0
462 -50 -23 0
-462 50 0
-462 23 0
463 -462 -779 0
-463 462 0
-463 779 0
464 -885 -461 0
-464 885 0
-464 461 0
465 -29 -705 0
-465 29 0
-465 705 0
466 -465 -18 0
-466 465 0
-466 18 0
467 -886 -464 0
-467 886 0
-467 464 0
468 -715 -16 0
-468 715 0
-468 16 0
469 -468 -8 0
-469 468 0
-469 8 0
470 -887 -467 0
-470 887 0
-470 467 0
471 -4 -1 0
-471 4 0
-471 1 0
472 -471 -29 0
-472 471 0
-472 29 0
473 -888 -470 0
-473 888 0
-473 470 0
474 -44 -763 0
-474 44 0
-474 763 0
475 -474 -750 0
-475 474 0
-475 750 0
476 -889 -473 0
-476 889 0
-476 473 0
477 -41 -730 0
-477 41 0
-477 730 0
478 -477 -746 0
-478 477 0
-478 746 0
479 -890 -476 0
-479 890 0
-479 476 0
480 -46 -4 0
-480 46 0
-480 4 0
481 -480 -6 0
-481 480 0
-481 6 0
482 -891 -479 0
-482 891 0
-482 479 0
483 -341 -17 0
-483 341 0
-483 17 0
484 -892 -482 0
-484 892 0
-484 482 0
485 -28 -719 0
-485 28 0
-485 719 0
486 -485 -27 0
-486 485 0
-486 27 0
487 -893 -484 0
-487 893 0
-487 484 0
488 -47 -712 0
-488 47 0
-488 712 0
489 -488 -711 0
-489 488 0
-489 711 0
490 -894 -487 0
-490 894 0
-490 487 0
491 -744 -7 0
-491 744 0
-491 7 0
492 -491 -746 0
-492 491 0
-492 746 0
493 -895 -490 0
-493 895 0
-493 490 0
494 -740 -821 0
-494 740 0
-494 821 0
495 -494 -19 0
-495 494 0
-495 19 0
496 -896 -493 0
-496 896 0
-496 493 0
497 -44 -36 0
-497 44 0
-497 36 0
498 -497 -39 0
-498 497 0
-498 39 0
499 -897 -496 0
-499 897 0
-499 496 0
500 -735 -24 0
-500 735 0
-500 24 0
501 -500 -13 0
-501 500 0
-501 13 0
502 -898 -499 0
-502 898 0
-502 499 0
503 -44 -20 0
-503 44 0
-503 20 0
504 -503 -8 0
-504 503 0
-504 8 0
505 -899 -502 0
-505 899 0
-505 502 0
506 -36 -31 0
-506 36 0
-506 31 0
507 -506 -12 0
-507 506 0
-507 12 0
508 -900 -505 0
-508 900 0
-508 505 0
509 -260 -719 0
-509 260 0
-509 719 0
510 -901 -508 0
-510 901 0
-510 508 0
511 -818 -9 0
-511 818 0
-511 9 0
512 -511 -13 0
-512 511 0
-512 13 0
513 -902 -510 0
-513 902 0
-513 510 0
514 -821 -707 0
-514 821 0
-514 707 0
515 -514 -802 0
-515 514 0
-515 802 0
516 -903 -513 0
-516 903 0
-516 513 0
517 -821 -23 0
-517 821 0
-517 23 0
518 -517 -22 0
-518 517 0
-518 22 0
519 -904 -516 0
-519 904 0
-519 516 0
520 -798 -723 0
-520 798 0
-520 723 0
521 -520 -707 0
-521 520 0
-521 707 0
522 -905 -519 0
-522 905 0
-522 519 0
523 -737 -28 0
-523 737 0
-523 28 0
524 -523 -19 0
-524 523 0
-524 19 0
525 -906 -522 0
-525 906 0
-525 522 0
526 -9 -702 0
-526 9 0
-526 702 0
527 -526 -17 0
-527 526 0
-527 17 0
528 -907 -525 0
-528 907 0
-528 525 0
529 -11 -699 0
-529 11 0
-529 699 0
530 -529 -723 0
-530 529 0
-530 723 0
531 -908 -528 0
-531 908 0
-531 528 0
532 -26 -10 0
-532 26 0
-532 10 0
533 -532 -37 0
-533 532 0
-533 37 0
534 -909 -531 0
-534 909 0
-534 531 0
535 -770 -11 0
-535 770 0
-535 11 0
536 -535 -27 0
-536 535 0
-536 27 0
537 -910 -534 0
-537 910 0
-537 534 0
538 -20 -781 0
-538 20 0
-538 781 0
539 -538 -749 0
-539 538 0
-539 749 0
540 -911 -537 0
-540 911 0
-540 537 0
541 -800 -10 0
-541 800 0
-541 10 0
542 -541 -707 0
-542 541 0
-542 707 0
543 -912 -540 0
-543 912 0
-543 540 0
544 -26 -21 0
-544 26 0
-544 21 0
545 -544 -27 0
-545 544 0
-545 27 0
546 -913 -543 0
-546 913 0
-546 543 0
547 -46 -40 0
-547 46 0
-547 40 0
548 -547 -22 0
-548 547 0
-548 22 0
549 -914 -546 0
-549 914 0
-549 546 0
550 -715 -721 0
-550 715 0
-550 721 0
551 -550 -767 0
-551 550 0
-551 767 0
552 -915 -549 0
-552 915 0
-552 549 0
553 -749 -730 0
-553 749 0
-553 730 0
554 -553 -22 0
-554 553 0
-554 22 0
555 -916 -552 0
-555 916 0
-555 552 0
556 -755 -4 0
-556 755 0
-556 4 0
557 -556 -709 0
-557 556 0
-557 709 0
558 -917 -555 0
-558 917 0
-558 555 0
559 -39 -717 0
-559 39 0
-559 717 0
560 -559 -12 0
-560 559 0
-560 12 0
561 -918 -558 0
-561 918 0
-561 558 0
562 -798 -721 0
-562 798 0
-562 721 0
563 -562 -778 0
-563 562 0
-563 778 0
564 -919 -561 0
-564 919 0
-564 561 0
565 -699 -2 0
-565 699 0
-565 2 0
566 -565 -779 0
-566 565 0
-566 779 0
567 -920 -564 0
-567 920 0
-567 564 0
568 -46 -704 0
-568 46 0
-568 704 0
569 -568 -715 0
-569 568 0
-569 715 0
570 -921 -567 0
-570 921 0
-570 567 0
571 -48 -30 0
-571 48 0
-571 30 0
572 -571 -709 0
-572 571 0
-572 709 0
573 -922 -570 0
-573 922 0
-573 570 0
574 -714 -5 0
-574 714 0
-574 5 0
575 -574 -723 0
-575 574 0
-575 723 0
576 -923 -573 0
-576 923 0
-576 573 0
577 -36 -33 0
-577 36 0
-577 33 0
578 -577 -802 0
-578 577 0
-578 802 0
579 -924 -576 0
-579 924 0
-579 576 0
580 -31 -30 0
-580 31 0
-580 30 0
581 -580 -707 0
-581 580 0
-581 707 0
582 -925 -579 0
-582 925 0
-582 579 0
583 -775 -31 0
-583 775 0
-583 31 0
584 -583 -35 0
-584 583 0
-584 35 0
585 -926 -582 0
-585 926 0
-585 582 0
586 -28 -927 0
-586 28 0
-586 927 0
587 -586 -702 0
-587 586 0
-587 702 0
588 -928 -585 0
-588 928 0
-588 585 0
589 -800 -26 0
-589 800 0
-589 26 0
590 -589 -746 0
-590 589 0
-590 746 0
591 -929 -588 0
-591 929 0
-591 588 0
592 -755 -19 0
-592 755 0
-592 19 0
593 -592 -727 0
-593 592 0
-593 727 0
594 -930 -591 0
-594 930 0
-594 591 0
595 -32 -709 0
-595 32 0
-595 709 0
596 -595 -784 0
-596 595 0
-596 784 0
597 -931 -594 0
-597 931 0
-597 594 0
598 -20 -707 0
-598 20 0
-598 707 0
599 -598 -8 0
-599 598 0
-599 8 0
600 -932 -597 0
-600 932 0
-600 597 0
601 -827 -704 0
-601 827 0
-601 704 0
602 -601 -702 0
-602 601 0
-602 702 0
603 -933 -600 0
-603 933 0
-603 600 0
604 -781 -702 0
-604 781 0
-604 702 0
605 -604 -747 0
-605 604 0
-605 747 0
606 -934 -603 0
-606 934 0
-606 603 0
607 -783 -740 0
-607 783 0
-607 740 0
608 -607 -755 0
-608 607 0
-608 755 0
609 -935 -606 0
-609 935 0
-609 606 0
610 -28 -800 0
-610 28 0
-610 800 0
611 -610 -767 0
-611 610 0
-611 767 0
612 -936 -609 0
-612 936 0
-612 609 0
613 -704 -927 0
-613 704 0
-613 927 0
614 -613 -49 0
-614 613 0
-614 49 0
615 -937 -612 0
-615 937 0
-615 612 0
616 -839 -707 0
-616 839 0
-616 707 0
617 -616 -767 0
-617 616 0
-617 767 0
618 -938 -615 0
-618 938 0
-618 615 0
619 -807 -5 0
-619 807 0
-619 5 0
620 -619 -709 0
-620 619 0
-620 709 0
621 -939 -618 0
-621 939 0
-621 618 0
622 -41 -20 0
-622 41 0
-622 20 0
623 -622 -765 0
-623 622 0
-623 765 0
624 -940 -621 0
-624 940 0
-624 621 0
625 -735 -25 0
-625 735 0
-625 25 0
626 -625 -37 0
-626 625 0
-626 37 0
627 -941 -624 0
-627 941 0
-627 624 0
628 -798 -707 0
-628 798 0
-628 707 0
629 -628 -8 0
-629 628 0
-629 8 0
630 -942 -627 0
-630 942 0
-630 627 0
631 -798 -735 0
-631 798 0
-631 735 0
632 -631 -747 0
-632 631 0
-632 747 0
633 -943 -630 0
-633 943 0
-633 630 0
634 -7 -4 0
-634 7 0
-634 4 0
635 -634 -802 0
-635 634 0
-635 802 0
636 -944 -633 0
-636 944 0
-636 633 0
637 -821 -721 0
-637 821 0
-637 721 0
638 -637 -27 0
-638 637 0
-638 27 0
639 -945 -636 0
-639 945 0
-639 636 0
640 -775 -38 0
-640 775 0
-640 38 0
641 -640 -758 0
-641 640 0
-641 758 0
642 -946 -639 0
-642 946 0
-642 639 0
643 -17 -16 0
-643 17 0
-643 16 0
644 -643 -8 0
-644 643 0
-644 8 0
645 -947 -642 0
-645 947 0
-645 642 0
646 -296 -16 0
-646 296 0
-646 16 0
647 -948 -645 0
-647 948 0
-647 645 0
648 -758 -1 0
-648 758 0
-648 1 0
649 -648 -821 0
-649 648 0
-649 821 0
650 -949 -647 0
-650 949 0
-650 647 0
651 -35 -5 0
-651 35 0
-651 5 0
652 -651 -14 0
-652 651 0
-652 14 0
653 -950 -650 0
-653 950 0
-653 650 0
654 -24 -927 0
-654 24 0
-654 927 0
655 -654 -15 0
-655 654 0
-655 15 0
656 -951 -653 0
-656 951 0
-656 653 0
657 -818 -36 0
-657 818 0
-657 36 0
658 -657 -730 0
-658 657 0
-658 730 0
659 -952 -656 0
-659 952 0
-659 656 0
660 -46 -26 0
-660 46 0
-660 26 0
661 -660 -39 0
-661 660 0
-661 39 0
662 -953 -659 0
-662 953 0
-662 659 0
663 -827 -17 0
-663 827 0
-663 17 0
664 -663 -730 0
-664 663 0
-664 730 0
665 -954 -662 0
-665 954 0
-665 662 0
666 -755 -727 0
-666 755 0
-666 727 0
667 -666 -49 0
-667 666 0
-667 49 0
668 -955 -665 0
-668 955 0
-668 665 0
669 -798 -44 0
-669 798 0
-669 44 0
670 -669 -723 0
-670 669 0
-670 723 0
671 -956 -668 0
-671 956 0
-671 668 0
672 -740 -827 0
-672 740 0
-672 827 0
673 -672 -761 0
-673 672 0
-673 761 0
674 -957 -671 0
-674 957 0
-674 671 0
675 -798 -5 0
-675 798 0
-675 5 0
676 -675 -712 0
-676 675 0
-676 712 0
677 -958 -674 0
-677 958 0
-677 674 0
678 -50 -821 0
-678 50 0
-678 821 0
679 -678 -8 0
-679 678 0
-679 8 0
680 -959 -677 0
-680 959 0
-680 677 0
681 -535 -711 0
-681 535 0
-681 711 0
682 -960 -680 0
-682 960 0
-682 680 0
683 -711 -11 0
-683 711 0
-683 11 0
684 -683 -37 0
-684 683 0
-684 37 0
685 -961 -682 0
-685 961 0
-685 682 0
686 -48 -719 0
-686 48 0
-686 719 0
687 -686 -14 0
-687 686 0
-687 14 0
688 -962 -685 0
-688 962 0
-688 685 0
689 -727 -704 0
-689 727 0
-689 704 0
690 -689 -802 0
-690 689 0
-690 802 0
691 -963 -688 0
-691 963 0
-691 688 0
692 -28 -704 0
-692 28 0
-692 704 0
693 -692 -737 0
-693 692 0
-693 737 0
694 -964 -691 0
-694 964 0
-694 691 0
695 -38 -732 0
-695 38 0
-695 732 0
696 -695 -839 0
-696 695 0
-696 839 0
697 -965 -694 0
-697 965 0
-697 694 0
-698 -1 0
698 1 0
-699 -4 0
699 4 0
-700 -54 0
700 54 0
-701 -52 0
701 52 0
-702 -5 0
702 5 0
-703 -57 0
703 57 0
-704 -9 0
704 9 0
-705 -10 0
705 10 0
-706 -60 0
706 60 0
-707 -12 0
707 12 0
-708 -63 0
708 63 0
-709 -15 0
709 15 0
-710 -66 0
710 66 0
-711 -18 0
711 18 0
-712 -17 0
712 17 0
-713 -69 0
713 69 0
-714 -21 0
714 21 0
-715 -20 0
715 20 0
-716 -72 0
716 72 0
-717 -23 0
717 23 0
-718 -75 0
718 75 0
-719 -24 0
719 24 0
-720 -78 0
720 78 0
-721 -2 0
721 2 0
-722 -81 0
722 81 0
-723 -29 0
723 29 0
-724 -84 0
724 84 0
-725 -30 0
725 30 0
-726 -87 0
726 87 0
-727 -25 0
727 25 0
-728 -90 0
728 90 0
-729 -93 0
729 93 0
-730 -33 0
730 33 0
-731 -96 0
731 96 0
-732 -35 0
732 35 0
-733 -99 0
733 99 0
-734 -102 0
734 102 0
-735 -28 0
735 28 0
-736 -105 0
736 105 0
-737 -31 0
737 31 0
-738 -108 0
738 108 0
-739 -111 0
739 111 0
-740 -36 0
740 36 0
-741 -114 0
741 114 0
-742 -117 0
742 117 0
-743 -120 0
743 120 0
-744 -13 0
744 13 0
-745 -123 0
745 123 0
-746 -37 0
746 37 0
-747 -6 0
747 6 0
-748 -126 0
748 126 0
-749 -39 0
749 39 0
-750 -38 0
750 38 0
-751 -129 0
751 129 0
-752 -132 0
752 132 0
-753 -135 0
753 135 0
-754 -138 0
754 138 0
-755 -42 0
755 42 0
-756 -141 0
756 141 0
-757 -144 0
757 144 0
-758 -11 0
758 11 0
-759 -147 0
759 147 0
-760 -150 0
760 150 0
-761 -43 0
761 43 0
-762 -153 0
762 153 0
-763 -34 0
763 34 0
-764 -156 0
764 156 0
-765 -19 0
765 19 0
-766 -159 0
766 159 0
-767 -3 0
767 3 0
-768 -162 0
768 162 0
-769 -165 0
769 165 0
-770 -44 0
770 44 0
-771 -168 0
771 168 0
-772 -171 0
772 171 0
-773 -174 0
773 174 0
-774 -177 0
774 177 0
-775 -46 0
775 46 0
-776 -180 0
776 180 0
-777 -183 0
777 183 0
-778 -47 0
778 47 0
-779 -8 0
779 8 0
-780 -186 0
780 186 0
-781 -14 0
781 14 0
-782 -189 0
782 189 0
-783 -40 0
783 40 0
-784 -16 0
784 16 0
-785 -192 0
785 192 0
-786 -195 0
786 195 0
-787 -198 0
787 198 0
-788 -201 0
788 201 0
-789 -204 0
789 204 0
-790 -207 0
790 207 0
-791 -45 0
791 45 0
-792 -210 0
792 210 0
-793 -213 0
793 213 0
-794 -216 0
794 216 0
-795 -219 0
795 219 0
-796 -222 0
796 222 0
-797 -225 0
797 225 0
-798 -48 0
798 48 0
-799 -228 0
799 228 0
-800 -27 0
800 27 0
-801 -231 0
801 231 0
-802 -49 0
802 49 0
-803 -234 0
803 234 0
-804 -237 0
804 237 0
-805 -240 0
805 240 0
-806 -243 0
806 243 0
-807 -41 0
807 41 0
-808 -246 0
808 246 0
-809 -249 0
809 249 0
-810 -252 0
810 252 0
-811 -255 0
811 255 0
-812 -258 0
812 258 0
-813 -261 0
813 261 0
-814 -264 0
814 264 0
-815 -267 0
815 267 0
-816 -270 0
816 270 0
-817 -273 0
817 273 0
-818 -50 0
818 50 0
-819 -276 0
819 276 0
-820 -279 0
820 279 0
-821 -32 0
821 32 0
-822 -282 0
822 282 0
-823 -285 0
823 285 0
-824 -288 0
824 288 0
-825 -291 0
825 291 0
-826 -294 0
826 294 0
-827 -26 0
827 26 0
-828 -297 0
828 297 0
-829 -300 0
829 300 0
-830 -303 0
830 303 0
-831 -306 0
831 306 0
-832 -309 0
832 309 0
-833 -312 0
833 312 0
-834 -315 0
834 315 0
-835 -318 0
835 318 0
-836 -321 0
836 321 0
-837 -324 0
837 324 0
-838 -327 0
838 327 0
-839 -22 0
839 22 0
-840 -330 0
840 330 0
-841 -333 0
841 333 0
-842 -336 0
842 336 0
-843 -339 0
843 339 0
-844 -342 0
844 342 0
-845 -345 0
845 345 0
-846 -348 0
846 348 0
-847 -351 0
847 351 0
-848 -354 0
848 354 0
-849 -357 0
849 357 0
-850 -360 0
850 360 0
-851 -363 0
851 363 0
-852 -366 0
852 366 0
-853 -369 0
853 369 0
-854 -372 0
854 372 0
-855 -375 0
855 375 0
-856 -378 0
856 378 0
-857 -381 0
857 381 0
-858 -384 0
858 384 0
-859 -387 0
859 387 0
-860 -390 0
860 390 0
-861 -393 0
861 393 0
-862 -396 0
862 396 0
-863 -398 0
863 398 0
-864 -401 0
864 401 0
-865 -404 0
865 404 0
-866 -407 0
866 407 0
-867 -410 0
867 410 0
-868 -413 0
868 413 0
-869 -415 0
869 415 0
-870 -418 0
870 418 0
-871 -421 0
871 421 0
-872 -424 0
872 424 0
-873 -427 0
873 427 0
-874 -430 0
874 430 0
-875 -433 0
875 433 0
-876 -436 0
876 436 0
-877 -439 0
877 439 0
-878 -442 0
878 442 0
-879 -445 0
879 445 0
-880 -448 0
880 448 0
-881 -451 0
881 451 0
-882 -454 0
882 454 0
-883 -457 0
883 457 0
-884 -460 0
884 460 0
-885 -463 0
885 463 0
-886 -466 0
886 466 0
-887 -469 0
887 469 0
-888 -472 0
888 472 0
-889 -475 0
889 475 0
-890 -478 0
890 478 0
-891 -481 0
891 481 0
-892 -483 0
892 483 0
-893 -486 0
893 486 0
-894 -489 0
894 489 0
-895 -492 0
895 492 0
-896 -495 0
896 495 0
-897 -498 0
897 498 0
-898 -501 0
898 501 0
-899 -504 0
899 504 0
-900 -507 0
900 507 0
-901 -509 0
901 509 0
-902 -512 0
902 512 0
-903 -515 0
903 515 0
-904 -518 0
904 518 0
-905 -521 0
905 521 0
-906 -524 0
906 524 0
-907 -527 0
907 527 0
-908 -530 0
908 530 0
-909 -533 0
909 533 0
-910 -536 0
910 536 0
-911 -539 0
911 539 0
-912 -542 0
912 542 0
-913 -545 0
913 545 0
-914 -548 0
914 548 0
-915 -551 0
915 551 0
-916 -554 0
916 554 0
-917 -557 0
917 557 0
-918 -560 0
918 560 0
-919 -563 0
919 563 0
-920 -566 0
920 566 0
-921 -569 0
921 569 0
-922 -572 0
922 572 0
-923 -575 0
923 575 0
-924 -578 0
924 578 0
-925 -581 0
925 581 0
-926 -584 0
926 584 0
-927 -7 0
927 7 0
-928 -587 0
928 587 0
-929 -590 0
929 590 0
-930 -593 0
930 593 0
-931 -596 0
931 596 0
-932 -599 0
932 599 0
-933 -602 0
933 602 0
-934 -605 0
934 605 0
-935 -608 0
935 608 0
-936 -611 0
936 611 0
-937 -614 0
937 614 0
-938 -617 0
938 617 0
-939 -620 0
939 620 0
-940 -623 0
940 623 0
-941 -626 0
941 626 0
-942 -629 0
942 629 0
-943 -632 0
943 632 0
-944 -635 0
944 635 0
-945 -638 0
945 638 0
-946 -641 0
946 641 0
-947 -644 0
947 644 0
-948 -646 0
948 646 0
-949 -649 0
949 649 0
-950 -652 0
950 652 0
-951 -655 0
951 655 0
-952 -658 0
952 658 0
-953 -661 0
953 661 0
-954 -664 0
954 664 0
-955 -667 0
955 667 0
-956 -670 0
956 670 0
-957 -673 0
957 673 0
-958 -676 0
958 676 0
-959 -679 0
959 679 0
-960 -681 0
960 681 0
-961 -684 0
961 684 0
-962 -687 0
962 687 0
-963 -690 0
963 690 0
-964 -693 0
964 693 0
-965 -696 0
965 696 0
697 0
